c description: Subset cardinality formula for fast_gnp_random_graph(4,10,0.8)
c generator: CNFgen (0.9.0)
c copyright: (C) 2012-2020 Massimo Lauria <massimo.lauria@uniroma1.it>
c url: https://massimolauria.net/cnfgen
c
p cnf 32 303
1 2 3 4 5 0
1 2 3 4 6 0
1 2 3 4 7 0
1 2 3 4 8 0
1 2 3 5 6 0
1 2 3 5 7 0
1 2 3 5 8 0
1 2 3 6 7 0
1 2 3 6 8 0
1 2 3 7 8 0
1 2 4 5 6 0
1 2 4 5 7 0
1 2 4 5 8 0
1 2 4 6 7 0
1 2 4 6 8 0
1 2 4 7 8 0
1 2 5 6 7 0
1 2 5 6 8 0
1 2 5 7 8 0
1 2 6 7 8 0
1 3 4 5 6 0
1 3 4 5 7 0
1 3 4 5 8 0
1 3 4 6 7 0
1 3 4 6 8 0
1 3 4 7 8 0
1 3 5 6 7 0
1 3 5 6 8 0
1 3 5 7 8 0
1 3 6 7 8 0
1 4 5 6 7 0
1 4 5 6 8 0
1 4 5 7 8 0
1 4 6 7 8 0
1 5 6 7 8 0
2 3 4 5 6 0
2 3 4 5 7 0
2 3 4 5 8 0
2 3 4 6 7 0
2 3 4 6 8 0
2 3 4 7 8 0
2 3 5 6 7 0
2 3 5 6 8 0
2 3 5 7 8 0
2 3 6 7 8 0
2 4 5 6 7 0
2 4 5 6 8 0
2 4 5 7 8 0
2 4 6 7 8 0
2 5 6 7 8 0
3 4 5 6 7 0
3 4 5 6 8 0
3 4 5 7 8 0
3 4 6 7 8 0
3 5 6 7 8 0
4 5 6 7 8 0
9 10 11 12 0
9 10 11 13 0
9 10 11 14 0
9 10 11 15 0
9 10 12 13 0
9 10 12 14 0
9 10 12 15 0
9 10 13 14 0
9 10 13 15 0
9 10 14 15 0
9 11 12 13 0
9 11 12 14 0
9 11 12 15 0
9 11 13 14 0
9 11 13 15 0
9 11 14 15 0
9 12 13 14 0
9 12 13 15 0
9 12 14 15 0
9 13 14 15 0
10 11 12 13 0
10 11 12 14 0
10 11 12 15 0
10 11 13 14 0
10 11 13 15 0
10 11 14 15 0
10 12 13 14 0
10 12 13 15 0
10 12 14 15 0
10 13 14 15 0
11 12 13 14 0
11 12 13 15 0
11 12 14 15 0
11 13 14 15 0
12 13 14 15 0
16 17 18 19 20 0
16 17 18 19 21 0
16 17 18 19 22 0
16 17 18 19 23 0
16 17 18 20 21 0
16 17 18 20 22 0
16 17 18 20 23 0
16 17 18 21 22 0
16 17 18 21 23 0
16 17 18 22 23 0
16 17 19 20 21 0
16 17 19 20 22 0
16 17 19 20 23 0
16 17 19 21 22 0
16 17 19 21 23 0
16 17 19 22 23 0
16 17 20 21 22 0
16 17 20 21 23 0
16 17 20 22 23 0
16 17 21 22 23 0
16 18 19 20 21 0
16 18 19 20 22 0
16 18 19 20 23 0
16 18 19 21 22 0
16 18 19 21 23 0
16 18 19 22 23 0
16 18 20 21 22 0
16 18 20 21 23 0
16 18 20 22 23 0
16 18 21 22 23 0
16 19 20 21 22 0
16 19 20 21 23 0
16 19 20 22 23 0
16 19 21 22 23 0
16 20 21 22 23 0
17 18 19 20 21 0
17 18 19 20 22 0
17 18 19 20 23 0
17 18 19 21 22 0
17 18 19 21 23 0
17 18 19 22 23 0
17 18 20 21 22 0
17 18 20 21 23 0
17 18 20 22 23 0
17 18 21 22 23 0
17 19 20 21 22 0
17 19 20 21 23 0
17 19 20 22 23 0
17 19 21 22 23 0
17 20 21 22 23 0
18 19 20 21 22 0
18 19 20 21 23 0
18 19 20 22 23 0
18 19 21 22 23 0
18 20 21 22 23 0
19 20 21 22 23 0
24 25 26 27 28 0
24 25 26 27 29 0
24 25 26 27 30 0
24 25 26 27 31 0
24 25 26 27 32 0
24 25 26 28 29 0
24 25 26 28 30 0
24 25 26 28 31 0
24 25 26 28 32 0
24 25 26 29 30 0
24 25 26 29 31 0
24 25 26 29 32 0
24 25 26 30 31 0
24 25 26 30 32 0
24 25 26 31 32 0
24 25 27 28 29 0
24 25 27 28 30 0
24 25 27 28 31 0
24 25 27 28 32 0
24 25 27 29 30 0
24 25 27 29 31 0
24 25 27 29 32 0
24 25 27 30 31 0
24 25 27 30 32 0
24 25 27 31 32 0
24 25 28 29 30 0
24 25 28 29 31 0
24 25 28 29 32 0
24 25 28 30 31 0
24 25 28 30 32 0
24 25 28 31 32 0
24 25 29 30 31 0
24 25 29 30 32 0
24 25 29 31 32 0
24 25 30 31 32 0
24 26 27 28 29 0
24 26 27 28 30 0
24 26 27 28 31 0
24 26 27 28 32 0
24 26 27 29 30 0
24 26 27 29 31 0
24 26 27 29 32 0
24 26 27 30 31 0
24 26 27 30 32 0
24 26 27 31 32 0
24 26 28 29 30 0
24 26 28 29 31 0
24 26 28 29 32 0
24 26 28 30 31 0
24 26 28 30 32 0
24 26 28 31 32 0
24 26 29 30 31 0
24 26 29 30 32 0
24 26 29 31 32 0
24 26 30 31 32 0
24 27 28 29 30 0
24 27 28 29 31 0
24 27 28 29 32 0
24 27 28 30 31 0
24 27 28 30 32 0
24 27 28 31 32 0
24 27 29 30 31 0
24 27 29 30 32 0
24 27 29 31 32 0
24 27 30 31 32 0
24 28 29 30 31 0
24 28 29 30 32 0
24 28 29 31 32 0
24 28 30 31 32 0
24 29 30 31 32 0
25 26 27 28 29 0
25 26 27 28 30 0
25 26 27 28 31 0
25 26 27 28 32 0
25 26 27 29 30 0
25 26 27 29 31 0
25 26 27 29 32 0
25 26 27 30 31 0
25 26 27 30 32 0
25 26 27 31 32 0
25 26 28 29 30 0
25 26 28 29 31 0
25 26 28 29 32 0
25 26 28 30 31 0
25 26 28 30 32 0
25 26 28 31 32 0
25 26 29 30 31 0
25 26 29 30 32 0
25 26 29 31 32 0
25 26 30 31 32 0
25 27 28 29 30 0
25 27 28 29 31 0
25 27 28 29 32 0
25 27 28 30 31 0
25 27 28 30 32 0
25 27 28 31 32 0
25 27 29 30 31 0
25 27 29 30 32 0
25 27 29 31 32 0
25 27 30 31 32 0
25 28 29 30 31 0
25 28 29 30 32 0
25 28 29 31 32 0
25 28 30 31 32 0
25 29 30 31 32 0
26 27 28 29 30 0
26 27 28 29 31 0
26 27 28 29 32 0
26 27 28 30 31 0
26 27 28 30 32 0
26 27 28 31 32 0
26 27 29 30 31 0
26 27 29 30 32 0
26 27 29 31 32 0
26 27 30 31 32 0
26 28 29 30 31 0
26 28 29 30 32 0
26 28 29 31 32 0
26 28 30 31 32 0
26 29 30 31 32 0
27 28 29 30 31 0
27 28 29 30 32 0
27 28 29 31 32 0
27 28 30 31 32 0
27 29 30 31 32 0
28 29 30 31 32 0
-1 -9 -16 0
-1 -9 -24 0
-1 -16 -24 0
-9 -16 -24 0
-10 -17 0
-10 -25 0
-17 -25 0
-2 -11 -18 0
-2 -11 -26 0
-2 -18 -26 0
-11 -18 -26 0
-3 -12 0
-3 -27 0
-12 -27 0
-4 -13 -19 0
-4 -13 -28 0
-4 -19 -28 0
-13 -19 -28 0
-5 -14 -20 0
-5 -14 -29 0
-5 -20 -29 0
-14 -20 -29 0
-15 -21 0
-6 -30 0
-7 -22 0
-7 -31 0
-22 -31 0
-8 -23 0
-8 -32 0
-23 -32 0